20	100	100	100
34	100	100
15	100	100
32	100	100
39	100	100
46	100	100
2	100	100
19	100	100
46	100	100
3	100	100
30	100	100
7	100	100
44	100	100
41	100	100
19	100	100
9	100	100
34	100	100
4	100	100
47	100	100
2	100	100
40	100	100
